NAME          BLANK   
ROWS
 N  OBJROW
 G  row01
 L  row02
 L  row03
 L  row04
 L  row05
COLUMNS
    col01     OBJROW    1.             row01     3.          
    col01     row05     5.6         
    col02     row01     1.             row02     2.          
    col03     row02     1.1            row03     1.          
    col04     row01      -2.           row04     2.8         
    col05     OBJROW    2.             row01      -1.        
    col05     row05     1.          
    col06     row03     1.          
    col07     row04      -1.2       
    col08     OBJROW     -1.           row01      -1.        
    col08     row05     1.9         
RHS
    RHS       row01     2.5            row02     2.1         
    RHS       row03     4.             row04     5.          
    RHS       row05     15.         
RANGES
    RANGE     row04     3.2            row05     12.         
BOUNDS
 LO BOUND     col01     2.5         
 UP BOUND     col02     4.1         
 UI BOUND     col03            1e+30
 UI BOUND     col04            1e+30
 LO BOUND     col05     0.5         
 UP BOUND     col05     4.          
 UP BOUND     col08     4.3         
ENDATA
